WARNING: for repeatability, setting FPU to use double precision
============================[ Problem Statistics ]=============================
|                                                                             |
|  Number of variables:            50                                         |
|  Number of clauses:             218                                         |
|  Parse time:                   0.00 s                                       |
|                                                                             |
============================[ Search Statistics ]==============================
| Conflicts |          ORIGINAL         |          LEARNT          | Progress |
|           |    Vars  Clauses Literals |    Limit  Clauses Lit/Cl |          |
===============================================================================
|       100 |      38      212      636 |       79       57      4 | 24.000 % |
===============================================================================
restarts              : 1
conflicts             : 101            (64168 /sec)
decisions             : 113            (0.00 % random) (71792 /sec)
propagations          : 1420           (902160 /sec)
conflict literals     : 411            (13.47 % deleted)
Memory used           : 20.00 MB
CPU time              : 0.001574 s

UNSATISFIABLE
